(set-logic QF_UF)
(declare-fun A0 () Bool)
(declare-fun A1 () Bool)
(declare-fun A2 () Bool)
(declare-fun A3 () Bool)
(declare-fun A4 () Bool)
(declare-fun A5 () Bool)
(declare-fun A6 () Bool)
(declare-fun A7 () Bool)
(declare-fun A9 () Bool)
(declare-fun A10 () Bool)
(declare-fun A11 () Bool)
(declare-fun A12 () Bool)
(declare-fun A13 () Bool)
(declare-fun A14 () Bool)
(declare-fun A15 () Bool)
(declare-fun A16 () Bool)
(declare-fun A17 () Bool)
(declare-fun A18 () Bool)
(declare-fun A19 () Bool)
(declare-fun A20 () Bool)
(declare-fun A21 () Bool)
(declare-fun A22 () Bool)
(declare-fun A23 () Bool)
(declare-fun A24 () Bool)
(assert (let ((.def_0 (or A11 A3))) (let ((.def_1 (or A2 A3))) (let ((.def_2 (and .def_1 .def_0))) (let ((.def_3 (not .def_2))) (let ((.def_4 (not A18))) (let ((.def_5 (or A24 .def_4))) (let ((.def_6 (or A5 A5))) (let ((.def_7 (or .def_6 .def_5))) (let ((.def_8 (not .def_7))) (let ((.def_9 (= .def_8 .def_3))) (let ((.def_10 (or A0 A21))) (let ((.def_11 (not A14))) (let ((.def_12 (or A9 .def_11))) (let ((.def_13 (and .def_12 .def_10))) (let ((.def_14 (not A7))) (let ((.def_15 (or .def_14 A13))) (let ((.def_16 (not .def_15))) (let ((.def_17 (not A2))) (let ((.def_18 (or .def_17 A7))) (let ((.def_19 (and .def_18 .def_16))) (let ((.def_20 (or .def_19 .def_13))) (let ((.def_21 (or .def_20 .def_9))) (let ((.def_22 (and A13 A23))) (let ((.def_23 (not .def_22))) (let ((.def_24 (not A1))) (let ((.def_25 (not A15))) (let ((.def_26 (or .def_25 .def_24))) (let ((.def_27 (not .def_26))) (let ((.def_28 (or .def_27 .def_23))) (let ((.def_29 (not .def_28))) (let ((.def_30 (not A19))) (let ((.def_31 (or A14 .def_30))) (let ((.def_32 (not .def_31))) (let ((.def_33 (not A0))) (let ((.def_34 (or .def_33 A5))) (let ((.def_35 (or .def_34 .def_32))) (let ((.def_36 (not .def_35))) (let ((.def_37 (and .def_36 .def_29))) (let ((.def_38 (or .def_33 A24))) (let ((.def_39 (not A16))) (let ((.def_40 (and A21 .def_39))) (let ((.def_41 (not .def_40))) (let ((.def_42 (and .def_41 .def_38))) (let ((.def_43 (not .def_42))) (let ((.def_44 (not A23))) (let ((.def_45 (not A6))) (let ((.def_46 (and .def_45 .def_44))) (let ((.def_47 (not .def_46))) (let ((.def_48 (and A16 .def_24))) (let ((.def_49 (not .def_48))) (let ((.def_50 (= .def_49 .def_47))) (let ((.def_51 (not .def_50))) (let ((.def_52 (or .def_51 .def_43))) (let ((.def_53 (and .def_52 .def_37))) (let ((.def_54 (not .def_53))) (let ((.def_55 (or .def_54 .def_21))) (let ((.def_56 (not .def_55))) (let ((.def_57 (and A20 A15))) (let ((.def_58 (and .def_45 A10))) (let ((.def_59 (and .def_58 .def_57))) (let ((.def_60 (not .def_59))) (let ((.def_61 (not A4))) (let ((.def_62 (and A17 .def_61))) (let ((.def_63 (or .def_44 A19))) (let ((.def_64 (not .def_63))) (let ((.def_65 (and .def_64 .def_62))) (let ((.def_66 (or .def_65 .def_60))) (let ((.def_67 (not .def_66))) (let ((.def_68 (not A5))) (let ((.def_69 (and A14 .def_68))) (let ((.def_70 (not A22))) (let ((.def_71 (or .def_44 .def_70))) (let ((.def_72 (= .def_71 .def_69))) (let ((.def_73 (or .def_25 A12))) (let ((.def_74 (not A20))) (let ((.def_75 (not A3))) (let ((.def_76 (and .def_75 .def_74))) (let ((.def_77 (or .def_76 .def_73))) (let ((.def_78 (not .def_77))) (let ((.def_79 (and .def_78 .def_72))) (let ((.def_80 (and .def_79 .def_67))) (let ((.def_81 (or .def_24 A11))) (let ((.def_82 (not .def_81))) (let ((.def_83 (and A16 .def_61))) (let ((.def_84 (not .def_83))) (let ((.def_85 (= .def_84 .def_82))) (let ((.def_86 (or A22 A21))) (let ((.def_87 (not .def_86))) (let ((.def_88 (and A15 A23))) (let ((.def_89 (not .def_88))) (let ((.def_90 (and .def_89 .def_87))) (let ((.def_91 (not .def_90))) (let ((.def_92 (or .def_91 .def_85))) (let ((.def_93 (not .def_92))) (let ((.def_94 (and .def_44 A10))) (let ((.def_95 (not .def_94))) (let ((.def_96 (and A22 A7))) (let ((.def_97 (and .def_96 .def_95))) (let ((.def_98 (not .def_97))) (let ((.def_99 (not A11))) (let ((.def_100 (or A3 .def_99))) (let ((.def_101 (not A10))) (let ((.def_102 (and .def_75 .def_101))) (let ((.def_103 (not .def_102))) (let ((.def_104 (and .def_103 .def_100))) (let ((.def_105 (and .def_104 .def_98))) (let ((.def_106 (not .def_105))) (let ((.def_107 (or .def_106 .def_93))) (let ((.def_108 (and .def_107 .def_80))) (let ((.def_109 (or .def_108 .def_56))) .def_109)))))))))))))))))))))))))))))))))))))))))))))))))))))))))))))))))))))))))))))))))))))))))))))))))))))))))))))))
(check-sat)
